=obj= 9.0000000000e+00
C0001 9
C0002 1
C0003 2
C0004 5.9999999999999538e+00
C0005 0
C0006 0
C0007 3
C0008 2
C0009 3
C0010 1
C0011 4.4999999999999538e+00
C0012 1.9999999999999800e+00
C0013 5.5
C0014 6.9999999999999538e+00
C0015 9.9999999999998002e-01
C0016 9.9999999999998002e-01
C0017 4
C0018 3.4999999999999805e+00
C0019 6.5
C0020 2
C0021 5.4999999999999538e+00
C0022 3.4999999999999805e+00
C0023 7.9999999999999254e+00
C0024 8.4999999999999538e+00
C0025 5.9
C0026 1.9999999999999201e+00
C0027 7.4999999999998970e+00
C0028 4.9999999999999805e+00
C0029 8.5
C0030 3.4999999999999996e+00
C0031 6.9999999999999538e+00
C0032 2
C0033 3
C0034 6.9999999999999538e+00
C0035 1
C0036 1
C0037 4
C0038 3
C0039 4
C0040 2
C0041 5.4999999999999538e+00
C0042 3.4999999999999800e+00
C0043 6.5
C0044 8.4999999999999538e+00
C0045 1.9999999999999800e+00
C0046 1.9999999999999800e+00
C0047 5.5
C0048 4.9999999999999805e+00
C0049 8.5
C0050 3.5
C0051 6.9999999999999538e+00
C0052 4.2999999999999803e+00
C0053 8.4999999999999254e+00
C0054 8.9999999999999538e+00
C0055 8.5
C0056 2.5999999999999202e+00
C0057 7.9999999999998970e+00
C0058 5.5999999999999801e+00
C0059 9
C0060 4.1
C0061 7.4999999999999538e+00
C0062 1
C0063 1
C0064 0
C0065 1
C0066 0
C0067 1
C0068 0
C0069 0
C0070 0
C0071 1
C0072 0
C0073 0
C0074 1
C0075 0
C0076 1
C0077 0
C0078 1
C0079 1
C0080 1
C0081 0
C0082 0
C0083 1
C0084 0
C0085 1
C0086 0
C0087 1
C0088 0
C0089 1
C0090 1
C0091 0
C0092 1
C0093 0
C0094 1
C0095 0
C0096 1
C0097 0
C0098 1
C0099 0
C0100 0
C0101 1
C0102 0
C0103 0
C0104 0
C0105 1
C0106 1
C0107 0
C0108 0
C0109 1
C0110 1
C0111 0
C0112 1
C0113 1
C0114 1
C0115 0
C0116 0
C0117 1
C0118 1
C0119 0
C0120 0
C0121 1
C0122 1
C0123 1
C0124 0
C0125 0
C0126 1
C0127 0
C0128 1
C0129 0
C0130 1
C0131 0
C0132 1
C0133 0
C0134 0
C0135 1
C0136 0
C0137 1
C0138 1
C0139 1
C0140 0
C0141 0
C0142 0
C0143 0
C0144 0
C0145 1
C0146 0
C0147 0
C0148 0
C0149 1
C0150 1
C0151 1
C0152 0
C0153 1
C0154 1
C0155 1
C0156 0
C0157 1
C0158 1
C0159 1
C0160 1
C0161 1
C0162 1
C0163 1
C0164 1
C0165 0
C0166 1
C0167 0
C0168 0
C0169 1
C0170 0
C0171 0
C0172 0
C0173 0
C0174 0
C0175 1
C0176 1
C0177 1
C0178 0
C0179 1
C0180 0
C0181 1
C0182 0
C0183 1
C0184 1
C0185 0
C0186 0
C0187 0
C0188 0
C0189 0
C0190 1
C0191 1
C0192 0
C0193 0
C0194 0
C0195 0
C0196 1
C0197 1
C0198 1
C0199 1
C0200 0
C0201 1
C0202 0
C0203 0
C0204 0
C0205 1
C0206 0
C0207 0
C0208 0
C0209 0
C0210 1
C0211 1
C0212 0
C0213 1
C0214 0
C0215 1
C0216 1
C0217 1
C0218 0
C0219 1
C0220 1
C0221 1
C0222 1
C0223 1
C0224 1
C0225 1
C0226 0
C0227 0
C0228 1
C0229 1
C0230 0
C0231 0
C0232 0
C0233 0
C0234 0
C0235 0
C0236 0
C0237 0
C0238 0
C0239 1
C0240 0
C0241 1
C0242 0
C0243 1
C0244 0
C0245 1
C0246 1
C0247 1
C0248 0
C0249 0
C0250 1
C0251 1
C0252 1
C0253 1
C0254 1
C0255 1
C0256 0
C0257 0
C0258 0
C0259 1
C0260 0
C0261 0
C0262 0
C0263 0
C0264 0
C0265 0
C0266 1
C0267 1
C0268 1
C0269 1
C0270 0
C0271 1
C0272 1
C0273 0
C0274 1
C0275 1
C0276 0
C0277 1
C0278 0
C0279 0
C0280 1
C0281 0
C0282 0
C0283 1
C0284 0
C0285 0
C0286 1
C0287 0
C0288 0
C0289 1
C0290 1
C0291 1
C0292 0
C0293 0
C0294 0
C0295 1
C0296 0
C0297 1
C0298 1
C0299 0
C0300 0
C0301 1
C0302 0
C0303 1
C0304 1
C0305 0
C0306 1
C0307 1
C0308 1
C0309 0
C0310 1
C0311 1
C0312 1
C0313 0
C0314 0
C0315 0
C0316 1
C0317 1
C0318 0
C0319 0
C0320 0
C0321 0
C0322 0
C0323 0
C0324 1
C0325 1
C0326 1
C0327 1
C0328 0
C0329 0
C0330 1
C0331 1
C0332 0
C0333 1
C0334 1
C0335 1
C0336 1
C0337 0
C0338 1
C0339 1
C0340 1
C0341 0
C0342 1
C0343 1
C0344 1
C0345 1
C0346 1
C0347 0
C0348 1
C0349 0
C0350 0
C0351 0
C0352 0
C0353 1
C0354 0
C0355 0
C0356 0
C0357 0
C0358 0
C0359 0
C0360 0
C0361 1
C0362 0
C0363 0
C0364 0
C0365 0
C0366 0
C0367 0
C0368 0
C0369 0
C0370 0
C0371 1
C0372 0
C0373 0
C0374 1
C0375 1
C0376 0
C0377 0
C0378 0
C0379 1
C0380 1
C0381 1
C0382 1
C0383 0
C0384 1
C0385 1
C0386 0
C0387 0
C0388 1
C0389 1
C0390 1
C0391 0
C0392 1
C0393 1
C0394 0
C0395 0
C0396 1
C0397 1
C0398 1
C0399 1
C0400 1
C0401 0
C0402 0
C0403 0
C0404 0
C0405 1
C0406 0
C0407 1
C0408 1
C0409 0
C0410 0
C0411 1
C0412 0
C0413 0
C0414 0
C0415 0
C0416 0
C0417 0
C0418 0
C0419 1
C0420 1
C0421 1
C0422 1
C0423 1
C0424 1
C0425 1
C0426 1
C0427 1
C0428 1
C0429 1
C0430 1
C0431 1
C0432 1
C0433 1
C0434 0
C0435 0
C0436 1
C0437 0
C0438 0
C0439 1
C0440 0
C0441 0
C0442 0
C0443 1
C0444 0
C0445 1
C0446 0
C0447 1
C0448 1
C0449 0
C0450 0
C0451 1
C0452 0
C0453 0
C0454 1
C0455 0
C0456 0
C0457 1
C0458 0
C0459 1
C0460 0
C0461 1
C0462 0
C0463 0
C0464 0
C0465 0
C0466 1
C0467 0
C0468 1
C0469 1
C0470 1
C0471 1
C0472 1
C0473 0
C0474 1
C0475 1
C0476 0
C0477 0
C0478 0
C0479 0
C0480 0
C0481 0
C0482 1
C0483 0
C0484 1
C0485 1
C0486 1
C0487 0
C0488 1
C0489 1
C0490 1
C0491 0
C0492 0
C0493 0
C0494 0
C0495 1
C0496 1
C0497 1
C0498 0
C0499 1
C0500 0
C0501 1
C0502 0
C0503 0
C0504 0
C0505 0
C0506 0
C0507 1
C0508 1
C0509 0
C0510 1
C0511 1
C0512 0
C0513 1
C0514 0
C0515 1
C0516 0
C0517 1
C0518 0
C0519 1
C0520 1
C0521 1
C0522 1
C0523 0
C0524 1
C0525 1
C0526 1
C0527 0
C0528 0
C0529 1
C0530 0
C0531 0
C0532 0
C0533 1
C0534 0
C0535 0
C0536 1
C0537 0
C0538 1
C0539 1
C0540 1
C0541 1
C0542 1
C0543 1
C0544 1
C0545 0
C0546 0
C0547 1
C0548 0
C0549 0
C0550 0
C0551 0
C0552 0
C0553 0
C0554 0
C0555 1
C0556 0
C0557 1
C0558 0
C0559 1
C0560 0
C0561 1
C0562 1
C0563 0
C0564 0
C0565 0
C0566 0
C0567 0
C0568 1
C0569 0
C0570 1
C0571 0
C0572 1
C0573 1
C0574 1
C0575 1
C0576 1
C0577 1
C0578 1
C0579 1
C0580 1
C0581 0
C0582 1
C0583 1
C0584 1
C0585 0
C0586 0
C0587 1
C0588 1
C0589 0
C0590 0
C0591 0
C0592 0
C0593 0
C0594 0
C0595 0
C0596 1
C0597 0
C0598 0
C0599 0
C0600 0
C0601 0
C0602 0
C0603 1
C0604 1
C0605 1
C0606 0
C0607 0
C0608 0
C0609 0
C0610 1
C0611 1
C0612 0
C0613 1
C0614 1
C0615 1
C0616 0
C0617 0
C0618 1
C0619 1
C0620 0
C0621 1
C0622 0
C0623 1
C0624 0
C0625 0
C0626 0
C0627 1
C0628 1
C0629 0
C0630 0
C0631 1
C0632 0
C0633 0
C0634 1
C0635 0
C0636 0
C0637 0
C0638 0
C0639 0
C0640 0
C0641 1
C0642 0
C0643 0
C0644 0
C0645 0
C0646 1
C0647 1
C0648 0
C0649 1
C0650 1
C0651 1
C0652 0
C0653 0
C0654 1
C0655 1
C0656 1
C0657 1
C0658 1
C0659 0
C0660 1
C0661 0
